(declare-const a Real)
(declare-const b Real)
(declare-const c Real)
(assert (= (+ a b c) 3))
(assert (not (<= (+ (* a b (+ (pow a 2) (* -1 (pow b 2)))) (* a c (+ (pow c 2) (* -1 (pow a 2)))) (* b c (+ (pow b 2) (* -1 (pow c 2)))) (* (/ -9 64) (pow 2 (/ 1 2)) (+ (pow a 2) (pow b 2) (pow c 2)) (+ (* 2 a b) (* 2 a c) (* 2 b c)))) 0)))
(check-sat)
(get-model)
(exit)